109 140 147 94 115 28 161 31 41 108 26 79 177 49 91 3 118 172 13 122 29 112 52 17 10 152 73 158 48 87 95 114 11 186 90 70 151 183 171 18 116 5 82 36 34 142 9 157 43 135 47 143 97 167 120 20 8 101 150 162 191 86 192 174 76 58 59 60 107 134 74 54 156 124 160 179 85 42 184 168 110 197 37 148 33 78 119 128 155 190 125 40 144 61 195 131 117 1 55 113 50 63 136 129 159 194 111 75 68 193 189 187 81 182 69 180 92 23 102 35 196 64 72 32 67 15 121 12 149 65 25 166 88 89 93 132 181 105 24 145 137 178 0 27 96 45 104 198 83 53 38 141 44 127 139 123 175 84 62 2 103 146 169 173 163 4 99 153 21 80 106 164 14 30 77 6 51 185 199 170 22 133 71 66 57 56 126 98 100 46 165 39 19 176 154 130 188 7 138 16